p cnf 10 55
5 7 10 0
-4 -3 -9 0
5 2 1 0
7 -9 6 0
-8 -4 -9 0
10 6 7 0
5 -1 -10 0
-2 1 3 0
-8 -2 6 0
-8 -2 4 0
-2 -7 -3 0
5 -2 10 0
1 -5 7 0
10 7 6 0
3 -9 6 0
6 10 -2 0
7 -8 -4 0
10 5 7 0
10 8 1 0
6 -8 5 0
-2 10 5 0
1 5 -2 0
-8 10 1 0
5 10 3 0
-2 5 10 0
-8 -10 1 0
6 -1 -2 0
1 3 5 0
1 -4 5 0
-4 5 -9 0
-1 -9 5 0
-9 7 -4 0
6 10 1 0
8 -9 10 0
4 5 7 0
1 6 2 0
7 -9 6 0
7 6 5 0
8 -9 10 0
4 -2 9 0
5 -8 -9 0
7 6 -4 0
-9 -7 1 0
-9 6 -3 0
5 -2 6 0
5 -3 -4 0
4 5 -3 0
-3 -6 10 0
-4 -9 -3 0
-4 -9 10 0
1 -9 -3 0
-9 5 3 0
-9 6 7 0
-6 -8 -4 0
-2 5 10 0
%
0